============================[ Problem Statistics ]=============================|                                                                             ||  Number of variables:          4242                                         ||  Number of clauses:            9796                                         ||  Parse time:                   0.21 s                                       ||                                                                             |============================[ Search Statistics ]==============================| Conflicts |          ORIGINAL         |          LEARNT          | Progress ||           |    Vars  Clauses Literals |    Limit  Clauses Lit/Cl |          |===============================================================================|       100 |    1591     6001   294992 |     2200      100     53 | 62.501 % |===============================================================================restarts              : 2conflicts             : 117            (340 /sec)decisions             : 288            (0.00 % random) (837 /sec)propagations          : 9885           (28735 /sec)conflict literals     : 6777           (95.74 % deleted)CPU time              : 0.344 sSATISFIABLE